WARNING: for repeatability, setting FPU to use double precision
============================[ Problem Statistics ]=============================
|                                                                             |
|  Number of variables:         14399                                         |
|  Number of clauses:          226104                                         |
|  Parse time:                   0.05 s                                       |
|  Eliminated clauses:           0.03 Mb                                      |
|  Simplification time:          0.07 s                                       |
|                                                                             |
============================[ Search Statistics ]==============================
| Conflicts |          ORIGINAL         |          LEARNT          | Progress |
|           |    Vars  Clauses Literals |    Limit  Clauses Lit/Cl |          |
===============================================================================
|       100 |    1533    11079    33299 |     4062      100     13 | 73.005 % |
|       250 |    1533    11079    33299 |     4468      250     14 | 73.005 % |
|       475 |    1533    11079    33299 |     4915      475     22 | 73.005 % |
|       812 |    1533    11079    33299 |     5406      812     38 | 73.005 % |
|      1318 |    1533    11079    33299 |     5947     1318     43 | 73.005 % |
|      2077 |    1532    11079    33299 |     6542     2076     46 | 73.012 % |
===============================================================================
restarts              : 14
conflicts             : 2080           (14563 /sec)
decisions             : 10852          (0.00 % random) (75982 /sec)
propagations          : 148074         (1036759 /sec)
conflict literals     : 96202          (5.23 % deleted)
Memory used           : 33.00 MB
CPU time              : 0.142824 s

SATISFIABLE
